PatchBench/BenchmarksExist/FFmpeg/CWE-189-Numeric-Errors/CVE_2011_3974_bd968d260aef322fb32e254a3de0d2036c57bd56/cve3/cavs_decode_frame_SnippetExist32.smt2
; benchmark generated from python API
(set-info :status unknown)
(declare-fun rdi () (_ BitVec 64))
(declare-fun rsi () (_ BitVec 64))
(assert
 (let ((?x9 ((_ extract 7 0) rdi)))
 (let ((?x11 ((_ extract 7 0) rsi)))
 (let (($x12 (= ?x11 ?x9)))
 (let (($x49 (not $x12)))
 (and $x49))))))
(check-sat)
